(declare-const p5_00 Real)
(declare-const fee_bl Real)
(declare-const p5_75 Real)
(declare-const p5_50 Real)
(declare-const p4_75 Real)
(declare-const p4_00 Real)
(declare-const p2_00 Real)
(declare-const income Real)
(declare-const p5_25 Real)
(declare-const p3_00 Real)
(assert (= p2_00 (* 0.02 (ite (> income 1000) 1000 income))))
(assert (= p3_00 (ite (> income 1000) (* 0.03 (- (ite (> income 2000) 2000 income) 1000)) 0)))
(assert (= p4_00 (ite (> income 2000) (* 0.04 (- (ite (> income 3000) 3000 income) 2000)) 0)))
(assert (= p4_75 (ite (> income 3000) (* 0.0475 (- (ite (> income 100000) 100000 income) 3000)) 0)))
(assert (= p5_00 (ite (> income 100000) (* 0.05 (- (ite (> income 125000) 125000 income) 100000)) 0)))
(assert (= p5_25 (ite (> income 125000) (* 0.0525 (- (ite (> income 150000) 150000 income) 125000)) 0)))
(assert (= p5_50 (ite (> income 150000) (* 0.055 (- (ite (> income 250000) 250000 income) 150000)) 0)))
(assert (= p5_75 (ite (> income 250000) (* 0.0575 (- income 250000)) 0)))
(assert (= fee_bl (+ (+ (+ (+ (+ (+ (+ p2_00 p3_00) p4_00) p4_75) p5_00) p5_25) p5_50) p5_75)))